/* Objective function */
min:252 x11 + 44.4 x21 + 56 x31 + 198 x41 + 38 x51 + 88.8 x61 + 122.4 x71 + 19.5 x81 + 201.6 x91 + 75.6 x101 + 167.4 x111 + 148 x121+ 252 x12 + 44.4 x22 + 56 x32 + 198 x42 + 38 x52 + 88.8 x62 + 122.4 x72 + 19.5 x82 + 201.6 x92 + 75.6 x102 + 167.4 x112 + 148 x122+ 252 x13 + 44.4 x23 + 56 x33 + 198 x43 + 38 x53 + 88.8 x63 + 122.4 x73 + 19.5 x83 + 201.6 x93 + 75.6 x103 + 167.4 x113 + 148 x123 + 252 x14 + 44.4 x24 + 56 x34 + 198 x44 + 38 x54 + 88.8 x64 + 122.4 x74 + 19.5 x84 + 201.6 x94 + 75.6 x104 + 167.4 x114 + 148 x124;

/* Constraints */
x11 + x12 + x13 + x14 = 1;
x21 + x22 + x23 + x24 = 1;
x31 + x32 + x33 + x34 = 1;
x41 + x42 + x43 + x44 = 1;
x51	+ x52	+ x53	+ x54 = 1;
x61	+ x62	+ x63 +	x64 = 1;
x71	+ x72	+ x73	+ x74 = 1;
x81	+ x82	+ x83	+ x84 = 1;
x91	+ x92	+ x93	+ x94 = 1;
x101 + x102 + x103 + x104 = 1;
x111 + x112 + x113 + x114 = 1;
x121 + x122	+ x123 + x124 = 1;

x11+x21+x31+x41+x51+x61+x71+x81+x91+x101+x111+x121 = 3;
x12+x22+x32+x42+x52+x62+x72+x82+x92+x102+x112+x122 = 3;
x13+x23+x33+x43+x53+x63+x73+x83+x93+x103+x113+x123 = 3;
x14+x24+x34+x44+x54+x64+x74+x84+x94+x104+x114+x124 = 3;

int x11, x21, x31, x41, x51, x61, x71, x81, x91, x101, x111, x121, x12, x22, x32, x42, x52, x62, x72, x82, x92, x102, x112, x122, x13, x23, x33, x43, x53, x63, x73, x83, x93, x103, x113, x123, x14, x24, x34, x44, x54, x64, x74, x84, x94, x104, x114, x124;
